20190515 30 0 0 0
20180529 26 0 0 0
20170519 10 3000 0 0
20160601 20 10000 0 0
20150515 10 3000 0 0
20150126 55 0 0 0
20130621 50 3000 0 0
20120529 200 10000 0 0
20110526 100 10000 0 0
20100621 300 3000 0 0
